
;this file is automatically generated: Thu Mar 24 18:16:45 GMT 2016

;declarations generated

(declare-fun rel_e43b9d9f_75a7_4164_8282_aff3d5e99369_Marriage ( Int Int) Bool )
(declare-fun oclSelect ( Int Bool) Int )
(declare-fun type_0e21c73e_fc4a_44b7_8b27_73df8dad431d_Person ( Int) Bool )
(declare-fun person_name ( Int) Int )
(declare-fun obj_64f9ec46_4dce_4786_8ff4_b23a60efb9b9 ( Int) Int )
(declare-fun Gender ( Int) Int )
(declare-fun oclExcludes ( Int Int) Bool )
(declare-fun container_ ( Int) Int )
(declare-fun Cardinality ( Int) Int )
(declare-fun oclIncludes ( Int Int) Bool )
(declare-fun aux4 () Int )
(declare-fun aux2 () Int )
(declare-fun aux3 () Int )
(declare-fun aux0 () Int )
(declare-fun aux1 () Int )
(declare-fun weight2 () Int )
(declare-fun weight3 () Int )
(declare-fun weight0 () Int )
(declare-fun weight1 () Int )
(declare-fun weight4 () Int )
(declare-fun ObjAt ( Int Int) Int )
(declare-fun CivilStatus ( Int) Int )

;formula(s) generated
(assert (forall ((p Int)) (=> ( type_0e21c73e_fc4a_44b7_8b27_73df8dad431d_Person p )  (and (>= ( CivilStatus ( obj_64f9ec46_4dce_4786_8ff4_b23a60efb9b9 p )  )  0) (<= ( CivilStatus ( obj_64f9ec46_4dce_4786_8ff4_b23a60efb9b9 p )  )  3)))))
(assert (forall ((p Int)) (=> ( type_0e21c73e_fc4a_44b7_8b27_73df8dad431d_Person p )  (and (>= ( Gender ( obj_64f9ec46_4dce_4786_8ff4_b23a60efb9b9 p )  )  0) (<= ( Gender ( obj_64f9ec46_4dce_4786_8ff4_b23a60efb9b9 p )  )  1)))))
(assert (and (>= aux0 0) (<= aux0 1)))
(assert (or (or (forall ((x Int)(y Int)) (=> (and ( rel_e43b9d9f_75a7_4164_8282_aff3d5e99369_Marriage ( obj_64f9ec46_4dce_4786_8ff4_b23a60efb9b9 x )   ( obj_64f9ec46_4dce_4786_8ff4_b23a60efb9b9 y )  )  (and ( type_0e21c73e_fc4a_44b7_8b27_73df8dad431d_Person x )  ( type_0e21c73e_fc4a_44b7_8b27_73df8dad431d_Person y ) )) (or (or (or (= (* ( Cardinality ( container_ x )  )  0) (* ( Cardinality ( container_ y )  )  0)) (= (* ( Cardinality ( container_ x )  )  1) (* ( Cardinality ( container_ y )  )  0))) (= (* ( Cardinality ( container_ x )  )  0) (* ( Cardinality ( container_ y )  )  1))) (= (* ( Cardinality ( container_ x )  )  1) (* ( Cardinality ( container_ y )  )  1))))) (and (= aux0 1) true)) (and (= aux0 0) false)))
(assert (forall ((x Int)(y Int)) (=> (and ( rel_e43b9d9f_75a7_4164_8282_aff3d5e99369_Marriage ( obj_64f9ec46_4dce_4786_8ff4_b23a60efb9b9 x )   ( obj_64f9ec46_4dce_4786_8ff4_b23a60efb9b9 y )  )  (and ( type_0e21c73e_fc4a_44b7_8b27_73df8dad431d_Person x )  ( type_0e21c73e_fc4a_44b7_8b27_73df8dad431d_Person y ) )) (or (or (or (= (* ( Cardinality ( container_ x )  )  0) (* ( Cardinality ( container_ y )  )  0)) (= (* ( Cardinality ( container_ x )  )  1) (* ( Cardinality ( container_ y )  )  0))) (= (* ( Cardinality ( container_ x )  )  0) (* ( Cardinality ( container_ y )  )  1))) (= (* ( Cardinality ( container_ x )  )  1) (* ( Cardinality ( container_ y )  )  1))))))
(assert (and (=> (= aux0 0) (= weight0 6)) (=> (= aux0 1) (= weight0 0))))
(assert (and (>= aux1 0) (<= aux1 1)))
(assert (or (or (forall ((p2 Int)(p1 Int)) (=> (and ( type_0e21c73e_fc4a_44b7_8b27_73df8dad431d_Person p1 )  ( type_0e21c73e_fc4a_44b7_8b27_73df8dad431d_Person p2 ) ) (=> (not (= ( obj_64f9ec46_4dce_4786_8ff4_b23a60efb9b9 p1 )  ( obj_64f9ec46_4dce_4786_8ff4_b23a60efb9b9 p2 ) ) ) (not (= ( person_name ( obj_64f9ec46_4dce_4786_8ff4_b23a60efb9b9 p1 )  )  ( person_name ( obj_64f9ec46_4dce_4786_8ff4_b23a60efb9b9 p2 )  ) ) )))) (and (= aux1 1) true)) (and (= aux1 0) false)))
(assert (and (=> (= aux1 0) (= weight1 12)) (=> (= aux1 1) (= weight1 0))))
(assert (and (>= aux2 0) (<= aux2 1)))
(assert (or (or (forall ((p Int)) (=> ( type_0e21c73e_fc4a_44b7_8b27_73df8dad431d_Person p )  (=> (= ( Gender ( obj_64f9ec46_4dce_4786_8ff4_b23a60efb9b9 p )  )  0) (not (exists ((v Int)) (and ( type_0e21c73e_fc4a_44b7_8b27_73df8dad431d_Person v )  ( rel_e43b9d9f_75a7_4164_8282_aff3d5e99369_Marriage ( obj_64f9ec46_4dce_4786_8ff4_b23a60efb9b9 p )   ( obj_64f9ec46_4dce_4786_8ff4_b23a60efb9b9 v )  ) )) )))) (and (= aux2 1) true)) (and (= aux2 0) false)))
(assert (and (=> (= aux2 0) (= weight2 9)) (=> (= aux2 1) (= weight2 0))))
(assert (and (>= aux3 0) (<= aux3 1)))
(assert (or (or (forall ((p Int)) (=> ( type_0e21c73e_fc4a_44b7_8b27_73df8dad431d_Person p )  (=> (= ( Gender ( obj_64f9ec46_4dce_4786_8ff4_b23a60efb9b9 p )  )  1) (not (exists ((v Int)) (and ( type_0e21c73e_fc4a_44b7_8b27_73df8dad431d_Person v )  ( rel_e43b9d9f_75a7_4164_8282_aff3d5e99369_Marriage ( obj_64f9ec46_4dce_4786_8ff4_b23a60efb9b9 p )   ( obj_64f9ec46_4dce_4786_8ff4_b23a60efb9b9 v )  ) )) )))) (and (= aux3 1) true)) (and (= aux3 0) false)))
(assert (and (=> (= aux3 0) (= weight3 9)) (=> (= aux3 1) (= weight3 0))))
(assert (and (>= aux4 0) (<= aux4 1)))
(assert (or (or (exists ((p Int)) ( type_0e21c73e_fc4a_44b7_8b27_73df8dad431d_Person ( obj_64f9ec46_4dce_4786_8ff4_b23a60efb9b9 p )  ) ) (and (= aux4 1) true)) (and (= aux4 0) false)))
(assert (and (=> (= aux4 0) (= weight4 3)) (=> (= aux4 1) (= weight4 0))))
(assert (= (+ (+ (+ (+ aux0 aux1) aux2) aux3) aux4) 0))

 ;end of formula 